; Property from "Case-Analysis for Rippling and Inductive Proof",
; Moa Johansson, Lucas Dixon and Alan Bundy, ITP 2010
(declare-datatypes ()
  ((Nat :source Definitions.Nat (Z :source Definitions.Z)
     (S :source Definitions.S (proj1-S Nat)))))
(define-fun-rec
  min :source Definitions.min
    ((x Nat) (y Nat)) Nat
    (match x
      (case Z Z)
      (case (S z)
        (match y
          (case Z Z)
          (case (S y1) (S (min z y1)))))))
(define-fun-rec
  == :source Definitions.==
    ((x Nat) (y Nat)) Bool
    (match x
      (case Z
        (match y
          (case Z true)
          (case (S z) false)))
      (case (S x2)
        (match y
          (case Z false)
          (case (S y2) (== x2 y2))))))
(define-fun-rec
  <=2 :source Definitions.<=
    ((x Nat) (y Nat)) Bool
    (match x
      (case Z true)
      (case (S z)
        (match y
          (case Z false)
          (case (S x2) (<=2 z x2))))))
(prove
  :source Properties.prop_33
  (forall ((a Nat) (b Nat)) (= (== (min a b) a) (<=2 a b))))
